p cnf 681 1995
c inputs: 1 2 3 4 5 6 7 8 9 10 11 12 13 14 15 16
c variables for gates: 17 ... 665
c outputs: 666 667 668 669 670 671 672 673 674 675 676 677 678 679 680 681
c random input: 1 -2 3 4 5 -6 7 8 9 10 11 12 -13 14 15 16
17 -1 -9 0
-17 1 0
-17 9 0
18 -2 -9 0
-18 2 0
-18 9 0
19 -3 -9 0
-19 3 0
-19 9 0
20 -4 -9 0
-20 4 0
-20 9 0
21 -5 -9 0
-21 5 0
-21 9 0
22 -6 -9 0
-22 6 0
-22 9 0
23 -7 -9 0
-23 7 0
-23 9 0
24 -8 -9 0
-24 8 0
-24 9 0
25 -1 -10 0
-25 1 0
-25 10 0
26 -2 -10 0
-26 2 0
-26 10 0
27 -3 -10 0
-27 3 0
-27 10 0
28 -4 -10 0
-28 4 0
-28 10 0
29 -5 -10 0
-29 5 0
-29 10 0
30 -6 -10 0
-30 6 0
-30 10 0
31 -7 -10 0
-31 7 0
-31 10 0
32 -8 -10 0
-32 8 0
-32 10 0
33 -1 -11 0
-33 1 0
-33 11 0
34 -2 -11 0
-34 2 0
-34 11 0
35 -3 -11 0
-35 3 0
-35 11 0
36 -4 -11 0
-36 4 0
-36 11 0
37 -5 -11 0
-37 5 0
-37 11 0
38 -6 -11 0
-38 6 0
-38 11 0
39 -7 -11 0
-39 7 0
-39 11 0
40 -8 -11 0
-40 8 0
-40 11 0
41 -1 -12 0
-41 1 0
-41 12 0
42 -2 -12 0
-42 2 0
-42 12 0
43 -3 -12 0
-43 3 0
-43 12 0
44 -4 -12 0
-44 4 0
-44 12 0
45 -5 -12 0
-45 5 0
-45 12 0
46 -6 -12 0
-46 6 0
-46 12 0
47 -7 -12 0
-47 7 0
-47 12 0
48 -8 -12 0
-48 8 0
-48 12 0
49 -1 -13 0
-49 1 0
-49 13 0
50 -2 -13 0
-50 2 0
-50 13 0
51 -3 -13 0
-51 3 0
-51 13 0
52 -4 -13 0
-52 4 0
-52 13 0
53 -5 -13 0
-53 5 0
-53 13 0
54 -6 -13 0
-54 6 0
-54 13 0
55 -7 -13 0
-55 7 0
-55 13 0
56 -8 -13 0
-56 8 0
-56 13 0
57 -1 -14 0
-57 1 0
-57 14 0
58 -2 -14 0
-58 2 0
-58 14 0
59 -3 -14 0
-59 3 0
-59 14 0
60 -4 -14 0
-60 4 0
-60 14 0
61 -5 -14 0
-61 5 0
-61 14 0
62 -6 -14 0
-62 6 0
-62 14 0
63 -7 -14 0
-63 7 0
-63 14 0
64 -8 -14 0
-64 8 0
-64 14 0
65 -1 -15 0
-65 1 0
-65 15 0
66 -2 -15 0
-66 2 0
-66 15 0
67 -3 -15 0
-67 3 0
-67 15 0
68 -4 -15 0
-68 4 0
-68 15 0
69 -5 -15 0
-69 5 0
-69 15 0
70 -6 -15 0
-70 6 0
-70 15 0
71 -7 -15 0
-71 7 0
-71 15 0
72 -8 -15 0
-72 8 0
-72 15 0
73 -1 -16 0
-73 1 0
-73 16 0
74 -2 -16 0
-74 2 0
-74 16 0
75 -3 -16 0
-75 3 0
-75 16 0
76 -4 -16 0
-76 4 0
-76 16 0
77 -5 -16 0
-77 5 0
-77 16 0
78 -6 -16 0
-78 6 0
-78 16 0
79 -7 -16 0
-79 7 0
-79 16 0
80 -8 -16 0
-80 8 0
-80 16 0
81 -18 -25 0
-81 18 0
-81 25 0
82 -18 25 0
-82 18 0
-82 -25 0
83 -25 18 0
-83 25 0
-83 -18 0
84 83 82 0
-84 -83 0
-84 -82 0
85 -26 -19 0
-85 26 0
-85 19 0
86 -19 -33 0
-86 19 0
-86 33 0
87 -26 -33 0
-87 26 0
-87 33 0
88 86 87 0
-88 -86 0
-88 -87 0
89 85 -88 0
-89 -85 0
-89 88 0
90 -26 33 0
-90 26 0
-90 -33 0
91 -33 26 0
-91 33 0
-91 -26 0
92 91 90 0
-92 -91 0
-92 -90 0
93 -19 -92 0
-93 19 0
-93 92 0
94 19 92 0
-94 -19 0
-94 -92 0
95 93 94 0
-95 -93 0
-95 -94 0
96 -20 -27 0
-96 20 0
-96 27 0
97 -20 -34 0
-97 20 0
-97 34 0
98 -34 -27 0
-98 34 0
-98 27 0
99 97 98 0
-99 -97 0
-99 -98 0
100 96 -99 0
-100 -96 0
-100 99 0
101 -27 34 0
-101 27 0
-101 -34 0
102 -34 27 0
-102 34 0
-102 -27 0
103 101 102 0
-103 -101 0
-103 -102 0
104 -20 -103 0
-104 20 0
-104 103 0
105 20 103 0
-105 -20 0
-105 -103 0
106 104 105 0
-106 -104 0
-106 -105 0
107 -28 -21 0
-107 28 0
-107 21 0
108 -21 -35 0
-108 21 0
-108 35 0
109 -28 -35 0
-109 28 0
-109 35 0
110 109 108 0
-110 -109 0
-110 -108 0
111 107 -110 0
-111 -107 0
-111 110 0
112 -28 35 0
-112 28 0
-112 -35 0
113 -35 28 0
-113 35 0
-113 -28 0
114 113 112 0
-114 -113 0
-114 -112 0
115 -21 -114 0
-115 21 0
-115 114 0
116 21 114 0
-116 -21 0
-116 -114 0
117 115 116 0
-117 -115 0
-117 -116 0
118 -22 -29 0
-118 22 0
-118 29 0
119 -22 -36 0
-119 22 0
-119 36 0
120 -36 -29 0
-120 36 0
-120 29 0
121 120 119 0
-121 -120 0
-121 -119 0
122 118 -121 0
-122 -118 0
-122 121 0
123 -29 36 0
-123 29 0
-123 -36 0
124 -36 29 0
-124 36 0
-124 -29 0
125 123 124 0
-125 -123 0
-125 -124 0
126 -22 -125 0
-126 22 0
-126 125 0
127 22 125 0
-127 -22 0
-127 -125 0
128 126 127 0
-128 -126 0
-128 -127 0
129 -30 -23 0
-129 30 0
-129 23 0
130 -23 -37 0
-130 23 0
-130 37 0
131 -30 -37 0
-131 30 0
-131 37 0
132 130 131 0
-132 -130 0
-132 -131 0
133 129 -132 0
-133 -129 0
-133 132 0
134 -30 37 0
-134 30 0
-134 -37 0
135 -37 30 0
-135 37 0
-135 -30 0
136 134 135 0
-136 -134 0
-136 -135 0
137 -23 -136 0
-137 23 0
-137 136 0
138 23 136 0
-138 -23 0
-138 -136 0
139 137 138 0
-139 -137 0
-139 -138 0
140 -31 -24 0
-140 31 0
-140 24 0
141 -38 -24 0
-141 38 0
-141 24 0
142 -38 -31 0
-142 38 0
-142 31 0
143 141 142 0
-143 -141 0
-143 -142 0
144 140 -143 0
-144 -140 0
-144 143 0
145 -31 38 0
-145 31 0
-145 -38 0
146 -38 31 0
-146 38 0
-146 -31 0
147 146 145 0
-147 -146 0
-147 -145 0
148 -24 -147 0
-148 24 0
-148 147 0
149 24 147 0
-149 -24 0
-149 -147 0
150 148 149 0
-150 -148 0
-150 -149 0
151 -39 -32 0
-151 39 0
-151 32 0
152 -32 39 0
-152 32 0
-152 -39 0
153 -39 32 0
-153 39 0
-153 -32 0
154 152 153 0
-154 -152 0
-154 -153 0
155 -42 -49 0
-155 42 0
-155 49 0
156 -42 49 0
-156 42 0
-156 -49 0
157 -49 42 0
-157 49 0
-157 -42 0
158 157 156 0
-158 -157 0
-158 -156 0
159 -50 -43 0
-159 50 0
-159 43 0
160 -43 -57 0
-160 43 0
-160 57 0
161 -50 -57 0
-161 50 0
-161 57 0
162 160 161 0
-162 -160 0
-162 -161 0
163 159 -162 0
-163 -159 0
-163 162 0
164 -50 57 0
-164 50 0
-164 -57 0
165 -57 50 0
-165 57 0
-165 -50 0
166 165 164 0
-166 -165 0
-166 -164 0
167 -43 -166 0
-167 43 0
-167 166 0
168 43 166 0
-168 -43 0
-168 -166 0
169 167 168 0
-169 -167 0
-169 -168 0
170 -44 -51 0
-170 44 0
-170 51 0
171 -44 -58 0
-171 44 0
-171 58 0
172 -58 -51 0
-172 58 0
-172 51 0
173 171 172 0
-173 -171 0
-173 -172 0
174 170 -173 0
-174 -170 0
-174 173 0
175 -51 58 0
-175 51 0
-175 -58 0
176 -58 51 0
-176 58 0
-176 -51 0
177 175 176 0
-177 -175 0
-177 -176 0
178 -44 -177 0
-178 44 0
-178 177 0
179 44 177 0
-179 -44 0
-179 -177 0
180 178 179 0
-180 -178 0
-180 -179 0
181 -52 -45 0
-181 52 0
-181 45 0
182 -45 -59 0
-182 45 0
-182 59 0
183 -52 -59 0
-183 52 0
-183 59 0
184 183 182 0
-184 -183 0
-184 -182 0
185 181 -184 0
-185 -181 0
-185 184 0
186 -52 59 0
-186 52 0
-186 -59 0
187 -59 52 0
-187 59 0
-187 -52 0
188 187 186 0
-188 -187 0
-188 -186 0
189 -45 -188 0
-189 45 0
-189 188 0
190 45 188 0
-190 -45 0
-190 -188 0
191 189 190 0
-191 -189 0
-191 -190 0
192 -46 -53 0
-192 46 0
-192 53 0
193 -46 -60 0
-193 46 0
-193 60 0
194 -60 -53 0
-194 60 0
-194 53 0
195 194 193 0
-195 -194 0
-195 -193 0
196 192 -195 0
-196 -192 0
-196 195 0
197 -53 60 0
-197 53 0
-197 -60 0
198 -60 53 0
-198 60 0
-198 -53 0
199 197 198 0
-199 -197 0
-199 -198 0
200 -46 -199 0
-200 46 0
-200 199 0
201 46 199 0
-201 -46 0
-201 -199 0
202 200 201 0
-202 -200 0
-202 -201 0
203 -54 -47 0
-203 54 0
-203 47 0
204 -47 -61 0
-204 47 0
-204 61 0
205 -54 -61 0
-205 54 0
-205 61 0
206 204 205 0
-206 -204 0
-206 -205 0
207 203 -206 0
-207 -203 0
-207 206 0
208 -54 61 0
-208 54 0
-208 -61 0
209 -61 54 0
-209 61 0
-209 -54 0
210 208 209 0
-210 -208 0
-210 -209 0
211 -47 -210 0
-211 47 0
-211 210 0
212 47 210 0
-212 -47 0
-212 -210 0
213 211 212 0
-213 -211 0
-213 -212 0
214 -55 -48 0
-214 55 0
-214 48 0
215 -62 -48 0
-215 62 0
-215 48 0
216 -62 -55 0
-216 62 0
-216 55 0
217 215 216 0
-217 -215 0
-217 -216 0
218 214 -217 0
-218 -214 0
-218 217 0
219 -55 62 0
-219 55 0
-219 -62 0
220 -62 55 0
-220 62 0
-220 -55 0
221 220 219 0
-221 -220 0
-221 -219 0
222 -48 -221 0
-222 48 0
-222 221 0
223 48 221 0
-223 -48 0
-223 -221 0
224 222 223 0
-224 -222 0
-224 -223 0
225 -63 -56 0
-225 63 0
-225 56 0
226 -56 63 0
-226 56 0
-226 -63 0
227 -63 56 0
-227 63 0
-227 -56 0
228 226 227 0
-228 -226 0
-228 -227 0
229 -81 95 0
-229 81 0
-229 -95 0
230 81 95 0
-230 -81 0
-230 -95 0
231 -81 -95 0
-231 81 0
-231 95 0
232 231 230 0
-232 -231 0
-232 -230 0
233 89 106 0
-233 -89 0
-233 -106 0
234 -41 106 0
-234 41 0
-234 -106 0
235 -41 89 0
-235 41 0
-235 -89 0
236 235 234 0
-236 -235 0
-236 -234 0
237 -236 233 0
-237 236 0
-237 -233 0
238 41 89 0
-238 -41 0
-238 -89 0
239 -41 -89 0
-239 41 0
-239 89 0
240 239 238 0
-240 -239 0
-240 -238 0
241 106 -240 0
-241 -106 0
-241 240 0
242 -106 240 0
-242 106 0
-242 -240 0
243 242 241 0
-243 -242 0
-243 -241 0
244 100 117 0
-244 -100 0
-244 -117 0
245 158 117 0
-245 -158 0
-245 -117 0
246 158 100 0
-246 -158 0
-246 -100 0
247 246 245 0
-247 -246 0
-247 -245 0
248 244 -247 0
-248 -244 0
-248 247 0
249 -158 100 0
-249 158 0
-249 -100 0
250 158 -100 0
-250 -158 0
-250 100 0
251 249 250 0
-251 -249 0
-251 -250 0
252 117 -251 0
-252 -117 0
-252 251 0
253 -117 251 0
-253 117 0
-253 -251 0
254 253 252 0
-254 -253 0
-254 -252 0
255 111 128 0
-255 -111 0
-255 -128 0
256 128 169 0
-256 -128 0
-256 -169 0
257 111 169 0
-257 -111 0
-257 -169 0
258 257 256 0
-258 -257 0
-258 -256 0
259 255 -258 0
-259 -255 0
-259 258 0
260 111 -169 0
-260 -111 0
-260 169 0
261 -111 169 0
-261 111 0
-261 -169 0
262 260 261 0
-262 -260 0
-262 -261 0
263 128 -262 0
-263 -128 0
-263 262 0
264 -128 262 0
-264 128 0
-264 -262 0
265 263 264 0
-265 -263 0
-265 -264 0
266 122 139 0
-266 -122 0
-266 -139 0
267 139 180 0
-267 -139 0
-267 -180 0
268 122 180 0
-268 -122 0
-268 -180 0
269 268 267 0
-269 -268 0
-269 -267 0
270 266 -269 0
-270 -266 0
-270 269 0
271 122 -180 0
-271 -122 0
-271 180 0
272 -122 180 0
-272 122 0
-272 -180 0
273 271 272 0
-273 -271 0
-273 -272 0
274 139 -273 0
-274 -139 0
-274 273 0
275 -139 273 0
-275 139 0
-275 -273 0
276 274 275 0
-276 -274 0
-276 -275 0
277 133 150 0
-277 -133 0
-277 -150 0
278 150 191 0
-278 -150 0
-278 -191 0
279 133 191 0
-279 -133 0
-279 -191 0
280 279 278 0
-280 -279 0
-280 -278 0
281 277 -280 0
-281 -277 0
-281 280 0
282 133 -191 0
-282 -133 0
-282 191 0
283 -133 191 0
-283 133 0
-283 -191 0
284 282 283 0
-284 -282 0
-284 -283 0
285 150 -284 0
-285 -150 0
-285 284 0
286 -150 284 0
-286 150 0
-286 -284 0
287 285 286 0
-287 -285 0
-287 -286 0
288 154 144 0
-288 -154 0
-288 -144 0
289 154 202 0
-289 -154 0
-289 -202 0
290 144 202 0
-290 -144 0
-290 -202 0
291 289 290 0
-291 -289 0
-291 -290 0
292 288 -291 0
-292 -288 0
-292 291 0
293 144 -202 0
-293 -144 0
-293 202 0
294 -144 202 0
-294 144 0
-294 -202 0
295 293 294 0
-295 -293 0
-295 -294 0
296 154 -295 0
-296 -154 0
-296 295 0
297 -154 295 0
-297 154 0
-297 -295 0
298 296 297 0
-298 -296 0
-298 -297 0
299 -40 -151 0
-299 40 0
-299 151 0
300 -40 213 0
-300 40 0
-300 -213 0
301 -151 213 0
-301 151 0
-301 -213 0
302 300 301 0
-302 -300 0
-302 -301 0
303 299 -302 0
-303 -299 0
-303 302 0
304 -151 -213 0
-304 151 0
-304 213 0
305 151 213 0
-305 -151 0
-305 -213 0
306 304 305 0
-306 -304 0
-306 -305 0
307 -40 -306 0
-307 40 0
-307 306 0
308 40 306 0
-308 -40 0
-308 -306 0
309 307 308 0
-309 -307 0
-309 -308 0
310 -65 163 0
-310 65 0
-310 -163 0
311 65 163 0
-311 -65 0
-311 -163 0
312 -65 -163 0
-312 65 0
-312 163 0
313 312 311 0
-313 -312 0
-313 -311 0
314 -73 174 0
-314 73 0
-314 -174 0
315 -66 174 0
-315 66 0
-315 -174 0
316 -66 -73 0
-316 66 0
-316 73 0
317 316 315 0
-317 -316 0
-317 -315 0
318 314 -317 0
-318 -314 0
-318 317 0
319 -73 66 0
-319 73 0
-319 -66 0
320 -66 73 0
-320 66 0
-320 -73 0
321 319 320 0
-321 -319 0
-321 -320 0
322 -321 174 0
-322 321 0
-322 -174 0
323 321 -174 0
-323 -321 0
-323 174 0
324 322 323 0
-324 -322 0
-324 -323 0
325 -74 185 0
-325 74 0
-325 -185 0
326 -67 185 0
-326 67 0
-326 -185 0
327 -74 -67 0
-327 74 0
-327 67 0
328 327 326 0
-328 -327 0
-328 -326 0
329 325 -328 0
-329 -325 0
-329 328 0
330 -74 67 0
-330 74 0
-330 -67 0
331 -67 74 0
-331 67 0
-331 -74 0
332 331 330 0
-332 -331 0
-332 -330 0
333 -332 185 0
-333 332 0
-333 -185 0
334 332 -185 0
-334 -332 0
-334 185 0
335 333 334 0
-335 -333 0
-335 -334 0
336 -75 196 0
-336 75 0
-336 -196 0
337 -68 196 0
-337 68 0
-337 -196 0
338 -68 -75 0
-338 68 0
-338 75 0
339 338 337 0
-339 -338 0
-339 -337 0
340 336 -339 0
-340 -336 0
-340 339 0
341 -75 68 0
-341 75 0
-341 -68 0
342 -68 75 0
-342 68 0
-342 -75 0
343 341 342 0
-343 -341 0
-343 -342 0
344 -343 196 0
-344 343 0
-344 -196 0
345 343 -196 0
-345 -343 0
-345 196 0
346 344 345 0
-346 -344 0
-346 -345 0
347 -76 207 0
-347 76 0
-347 -207 0
348 -69 207 0
-348 69 0
-348 -207 0
349 -76 -69 0
-349 76 0
-349 69 0
350 349 348 0
-350 -349 0
-350 -348 0
351 347 -350 0
-351 -347 0
-351 350 0
352 -76 69 0
-352 76 0
-352 -69 0
353 -69 76 0
-353 69 0
-353 -76 0
354 353 352 0
-354 -353 0
-354 -352 0
355 -354 207 0
-355 354 0
-355 -207 0
356 354 -207 0
-356 -354 0
-356 207 0
357 355 356 0
-357 -355 0
-357 -356 0
358 -77 218 0
-358 77 0
-358 -218 0
359 -70 218 0
-359 70 0
-359 -218 0
360 -70 -77 0
-360 70 0
-360 77 0
361 360 359 0
-361 -360 0
-361 -359 0
362 358 -361 0
-362 -358 0
-362 361 0
363 -77 70 0
-363 77 0
-363 -70 0
364 -70 77 0
-364 70 0
-364 -77 0
365 364 363 0
-365 -364 0
-365 -363 0
366 -365 218 0
-366 365 0
-366 -218 0
367 365 -218 0
-367 -365 0
-367 218 0
368 366 367 0
-368 -366 0
-368 -367 0
369 -78 -225 0
-369 78 0
-369 225 0
370 -71 -225 0
-370 71 0
-370 225 0
371 -78 -71 0
-371 78 0
-371 71 0
372 371 370 0
-372 -371 0
-372 -370 0
373 369 -372 0
-373 -369 0
-373 372 0
374 -78 71 0
-374 78 0
-374 -71 0
375 -71 78 0
-375 71 0
-375 -78 0
376 374 375 0
-376 -374 0
-376 -375 0
377 -225 -376 0
-377 225 0
-377 376 0
378 225 376 0
-378 -225 0
-378 -376 0
379 378 377 0
-379 -378 0
-379 -377 0
380 -79 -72 0
-380 79 0
-380 72 0
381 -79 72 0
-381 79 0
-381 -72 0
382 -72 79 0
-382 72 0
-382 -79 0
383 382 381 0
-383 -382 0
-383 -381 0
384 -229 243 0
-384 229 0
-384 -243 0
385 229 243 0
-385 -229 0
-385 -243 0
386 -229 -243 0
-386 229 0
-386 243 0
387 386 385 0
-387 -386 0
-387 -385 0
388 237 254 0
-388 -237 0
-388 -254 0
389 -237 254 0
-389 237 0
-389 -254 0
390 237 -254 0
-390 -237 0
-390 254 0
391 390 389 0
-391 -390 0
-391 -389 0
392 248 265 0
-392 -248 0
-392 -265 0
393 -155 265 0
-393 155 0
-393 -265 0
394 -155 248 0
-394 155 0
-394 -248 0
395 394 393 0
-395 -394 0
-395 -393 0
396 392 -395 0
-396 -392 0
-396 395 0
397 155 248 0
-397 -155 0
-397 -248 0
398 -155 -248 0
-398 155 0
-398 248 0
399 397 398 0
-399 -397 0
-399 -398 0
400 265 -399 0
-400 -265 0
-400 399 0
401 -265 399 0
-401 265 0
-401 -399 0
402 400 401 0
-402 -400 0
-402 -401 0
403 276 259 0
-403 -276 0
-403 -259 0
404 313 276 0
-404 -313 0
-404 -276 0
405 313 259 0
-405 -313 0
-405 -259 0
406 405 404 0
-406 -405 0
-406 -404 0
407 403 -406 0
-407 -403 0
-407 406 0
408 -313 259 0
-408 313 0
-408 -259 0
409 313 -259 0
-409 -313 0
-409 259 0
410 408 409 0
-410 -408 0
-410 -409 0
411 -410 276 0
-411 410 0
-411 -276 0
412 410 -276 0
-412 -410 0
-412 276 0
413 411 412 0
-413 -411 0
-413 -412 0
414 287 270 0
-414 -287 0
-414 -270 0
415 287 324 0
-415 -287 0
-415 -324 0
416 324 270 0
-416 -324 0
-416 -270 0
417 415 416 0
-417 -415 0
-417 -416 0
418 -417 414 0
-418 417 0
-418 -414 0
419 -324 270 0
-419 324 0
-419 -270 0
420 324 -270 0
-420 -324 0
-420 270 0
421 420 419 0
-421 -420 0
-421 -419 0
422 -421 287 0
-422 421 0
-422 -287 0
423 421 -287 0
-423 -421 0
-423 287 0
424 422 423 0
-424 -422 0
-424 -423 0
425 298 281 0
-425 -298 0
-425 -281 0
426 298 335 0
-426 -298 0
-426 -335 0
427 335 281 0
-427 -335 0
-427 -281 0
428 426 427 0
-428 -426 0
-428 -427 0
429 425 -428 0
-429 -425 0
-429 428 0
430 -335 281 0
-430 335 0
-430 -281 0
431 335 -281 0
-431 -335 0
-431 281 0
432 430 431 0
-432 -430 0
-432 -431 0
433 -432 298 0
-433 432 0
-433 -298 0
434 432 -298 0
-434 -432 0
-434 298 0
435 434 433 0
-435 -434 0
-435 -433 0
436 309 292 0
-436 -309 0
-436 -292 0
437 309 346 0
-437 -309 0
-437 -346 0
438 346 292 0
-438 -346 0
-438 -292 0
439 438 437 0
-439 -438 0
-439 -437 0
440 -439 436 0
-440 439 0
-440 -436 0
441 -346 292 0
-441 346 0
-441 -292 0
442 346 -292 0
-442 -346 0
-442 292 0
443 442 441 0
-443 -442 0
-443 -441 0
444 -443 309 0
-444 443 0
-444 -309 0
445 443 -309 0
-445 -443 0
-445 309 0
446 444 445 0
-446 -444 0
-446 -445 0
447 224 303 0
-447 -224 0
-447 -303 0
448 224 357 0
-448 -224 0
-448 -357 0
449 357 303 0
-449 -357 0
-449 -303 0
450 449 448 0
-450 -449 0
-450 -448 0
451 -450 447 0
-451 450 0
-451 -447 0
452 -357 303 0
-452 357 0
-452 -303 0
453 357 -303 0
-453 -357 0
-453 303 0
454 452 453 0
-454 -452 0
-454 -453 0
455 224 -454 0
-455 -224 0
-455 454 0
456 -224 454 0
-456 224 0
-456 -454 0
457 456 455 0
-457 -456 0
-457 -455 0
458 228 368 0
-458 -228 0
-458 -368 0
459 228 -368 0
-459 -228 0
-459 368 0
460 -228 368 0
-460 228 0
-460 -368 0
461 460 459 0
-461 -460 0
-461 -459 0
462 -64 379 0
-462 64 0
-462 -379 0
463 -64 -379 0
-463 64 0
-463 379 0
464 64 379 0
-464 -64 0
-464 -379 0
465 464 463 0
-465 -464 0
-465 -463 0
466 391 -384 0
-466 -391 0
-466 384 0
467 391 384 0
-467 -391 0
-467 -384 0
468 -391 -384 0
-468 391 0
-468 384 0
469 467 468 0
-469 -467 0
-469 -468 0
470 -388 402 0
-470 388 0
-470 -402 0
471 388 402 0
-471 -388 0
-471 -402 0
472 -388 -402 0
-472 388 0
-472 402 0
473 472 471 0
-473 -472 0
-473 -471 0
474 413 396 0
-474 -413 0
-474 -396 0
475 413 -396 0
-475 -413 0
-475 396 0
476 -413 396 0
-476 413 0
-476 -396 0
477 475 476 0
-477 -475 0
-477 -476 0
478 424 407 0
-478 -424 0
-478 -407 0
479 -310 424 0
-479 310 0
-479 -424 0
480 -310 407 0
-480 310 0
-480 -407 0
481 479 480 0
-481 -479 0
-481 -480 0
482 478 -481 0
-482 -478 0
-482 481 0
483 310 407 0
-483 -310 0
-483 -407 0
484 -310 -407 0
-484 310 0
-484 407 0
485 483 484 0
-485 -483 0
-485 -484 0
486 -485 424 0
-486 485 0
-486 -424 0
487 485 -424 0
-487 -485 0
-487 424 0
488 487 486 0
-488 -487 0
-488 -486 0
489 435 418 0
-489 -435 0
-489 -418 0
490 435 318 0
-490 -435 0
-490 -318 0
491 318 418 0
-491 -318 0
-491 -418 0
492 490 491 0
-492 -490 0
-492 -491 0
493 489 -492 0
-493 -489 0
-493 492 0
494 -318 418 0
-494 318 0
-494 -418 0
495 318 -418 0
-495 -318 0
-495 418 0
496 495 494 0
-496 -495 0
-496 -494 0
497 435 -496 0
-497 -435 0
-497 496 0
498 -435 496 0
-498 435 0
-498 -496 0
499 498 497 0
-499 -498 0
-499 -497 0
500 446 429 0
-500 -446 0
-500 -429 0
501 446 329 0
-501 -446 0
-501 -329 0
502 329 429 0
-502 -329 0
-502 -429 0
503 501 502 0
-503 -501 0
-503 -502 0
504 -503 500 0
-504 503 0
-504 -500 0
505 -329 429 0
-505 329 0
-505 -429 0
506 329 -429 0
-506 -329 0
-506 429 0
507 505 506 0
-507 -505 0
-507 -506 0
508 446 -507 0
-508 -446 0
-508 507 0
509 -446 507 0
-509 446 0
-509 -507 0
510 508 509 0
-510 -508 0
-510 -509 0
511 440 457 0
-511 -440 0
-511 -457 0
512 340 457 0
-512 -340 0
-512 -457 0
513 440 340 0
-513 -440 0
-513 -340 0
514 513 512 0
-514 -513 0
-514 -512 0
515 511 -514 0
-515 -511 0
-515 514 0
516 440 -340 0
-516 -440 0
-516 340 0
517 -440 340 0
-517 440 0
-517 -340 0
518 516 517 0
-518 -516 0
-518 -517 0
519 -518 457 0
-519 518 0
-519 -457 0
520 518 -457 0
-520 -518 0
-520 457 0
521 519 520 0
-521 -519 0
-521 -520 0
522 451 461 0
-522 -451 0
-522 -461 0
523 351 461 0
-523 -351 0
-523 -461 0
524 351 451 0
-524 -351 0
-524 -451 0
525 523 524 0
-525 -523 0
-525 -524 0
526 -525 522 0
-526 525 0
-526 -522 0
527 -351 451 0
-527 351 0
-527 -451 0
528 351 -451 0
-528 -351 0
-528 451 0
529 527 528 0
-529 -527 0
-529 -528 0
530 -529 461 0
-530 529 0
-530 -461 0
531 529 -461 0
-531 -529 0
-531 461 0
532 530 531 0
-532 -530 0
-532 -531 0
533 -458 465 0
-533 458 0
-533 -465 0
534 362 465 0
-534 -362 0
-534 -465 0
535 -458 362 0
-535 458 0
-535 -362 0
536 535 534 0
-536 -535 0
-536 -534 0
537 533 -536 0
-537 -533 0
-537 536 0
538 -458 -362 0
-538 458 0
-538 362 0
539 458 362 0
-539 -458 0
-539 -362 0
540 538 539 0
-540 -538 0
-540 -539 0
541 465 -540 0
-541 -465 0
-541 540 0
542 -465 540 0
-542 465 0
-542 -540 0
543 542 541 0
-543 -542 0
-543 -541 0
544 383 -462 0
-544 -383 0
-544 462 0
545 383 373 0
-545 -383 0
-545 -373 0
546 373 -462 0
-546 -373 0
-546 462 0
547 545 546 0
-547 -545 0
-547 -546 0
548 544 -547 0
-548 -544 0
-548 547 0
549 -373 -462 0
-549 373 0
-549 462 0
550 373 462 0
-550 -373 0
-550 -462 0
551 550 549 0
-551 -550 0
-551 -549 0
552 383 -551 0
-552 -383 0
-552 551 0
553 -383 551 0
-553 383 0
-553 -551 0
554 552 553 0
-554 -552 0
-554 -553 0
555 -80 -380 0
-555 80 0
-555 380 0
556 -80 380 0
-556 80 0
-556 -380 0
557 80 -380 0
-557 -80 0
-557 380 0
558 557 556 0
-558 -557 0
-558 -556 0
559 466 473 0
-559 -466 0
-559 -473 0
560 -466 -473 0
-560 466 0
-560 473 0
561 560 559 0
-561 -560 0
-561 -559 0
562 -466 473 0
-562 466 0
-562 -473 0
563 470 477 0
-563 -470 0
-563 -477 0
564 -470 -477 0
-564 470 0
-564 477 0
565 564 563 0
-565 -564 0
-565 -563 0
566 -565 -562 0
-566 565 0
-566 562 0
567 565 562 0
-567 -565 0
-567 -562 0
568 567 566 0
-568 -567 0
-568 -566 0
569 477 -562 0
-569 -477 0
-569 562 0
570 -470 -562 0
-570 470 0
-570 562 0
571 -470 477 0
-571 470 0
-571 -477 0
572 570 571 0
-572 -570 0
-572 -571 0
573 -572 569 0
-573 572 0
-573 -569 0
574 474 488 0
-574 -474 0
-574 -488 0
575 -474 -488 0
-575 474 0
-575 488 0
576 574 575 0
-576 -574 0
-576 -575 0
577 573 -576 0
-577 -573 0
-577 576 0
578 -573 576 0
-578 573 0
-578 -576 0
579 578 577 0
-579 -578 0
-579 -577 0
580 488 573 0
-580 -488 0
-580 -573 0
581 -474 573 0
-581 474 0
-581 -573 0
582 -474 488 0
-582 474 0
-582 -488 0
583 582 581 0
-583 -582 0
-583 -581 0
584 580 -583 0
-584 -580 0
-584 583 0
585 -482 499 0
-585 482 0
-585 -499 0
586 482 -499 0
-586 -482 0
-586 499 0
587 586 585 0
-587 -586 0
-587 -585 0
588 584 -587 0
-588 -584 0
-588 587 0
589 -584 587 0
-589 584 0
-589 -587 0
590 589 588 0
-590 -589 0
-590 -588 0
591 584 499 0
-591 -584 0
-591 -499 0
592 584 482 0
-592 -584 0
-592 -482 0
593 482 499 0
-593 -482 0
-593 -499 0
594 593 592 0
-594 -593 0
-594 -592 0
595 -594 591 0
-595 594 0
-595 -591 0
596 510 -493 0
-596 -510 0
-596 493 0
597 -510 493 0
-597 510 0
-597 -493 0
598 597 596 0
-598 -597 0
-598 -596 0
599 595 -598 0
-599 -595 0
-599 598 0
600 -595 598 0
-600 595 0
-600 -598 0
601 600 599 0
-601 -600 0
-601 -599 0
602 595 510 0
-602 -595 0
-602 -510 0
603 595 493 0
-603 -595 0
-603 -493 0
604 510 493 0
-604 -510 0
-604 -493 0
605 604 603 0
-605 -604 0
-605 -603 0
606 -605 602 0
-606 605 0
-606 -602 0
607 521 -504 0
-607 -521 0
-607 504 0
608 -521 504 0
-608 521 0
-608 -504 0
609 607 608 0
-609 -607 0
-609 -608 0
610 606 -609 0
-610 -606 0
-610 609 0
611 -606 609 0
-611 606 0
-611 -609 0
612 611 610 0
-612 -611 0
-612 -610 0
613 606 521 0
-613 -606 0
-613 -521 0
614 606 504 0
-614 -606 0
-614 -504 0
615 521 504 0
-615 -521 0
-615 -504 0
616 614 615 0
-616 -614 0
-616 -615 0
617 613 -616 0
-617 -613 0
-617 616 0
618 -515 532 0
-618 515 0
-618 -532 0
619 515 -532 0
-619 -515 0
-619 532 0
620 618 619 0
-620 -618 0
-620 -619 0
621 -620 617 0
-621 620 0
-621 -617 0
622 620 -617 0
-622 -620 0
-622 617 0
623 622 621 0
-623 -622 0
-623 -621 0
624 532 617 0
-624 -532 0
-624 -617 0
625 515 617 0
-625 -515 0
-625 -617 0
626 515 532 0
-626 -515 0
-626 -532 0
627 626 625 0
-627 -626 0
-627 -625 0
628 624 -627 0
-628 -624 0
-628 627 0
629 -526 543 0
-629 526 0
-629 -543 0
630 526 -543 0
-630 -526 0
-630 543 0
631 630 629 0
-631 -630 0
-631 -629 0
632 628 -631 0
-632 -628 0
-632 631 0
633 -628 631 0
-633 628 0
-633 -631 0
634 633 632 0
-634 -633 0
-634 -632 0
635 628 543 0
-635 -628 0
-635 -543 0
636 628 526 0
-636 -628 0
-636 -526 0
637 526 543 0
-637 -526 0
-637 -543 0
638 636 637 0
-638 -636 0
-638 -637 0
639 -638 635 0
-639 638 0
-639 -635 0
640 -537 554 0
-640 537 0
-640 -554 0
641 537 -554 0
-641 -537 0
-641 554 0
642 641 640 0
-642 -641 0
-642 -640 0
643 639 -642 0
-643 -639 0
-643 642 0
644 -639 642 0
-644 639 0
-644 -642 0
645 643 644 0
-645 -643 0
-645 -644 0
646 639 554 0
-646 -639 0
-646 -554 0
647 639 537 0
-647 -639 0
-647 -537 0
648 537 554 0
-648 -537 0
-648 -554 0
649 648 647 0
-649 -648 0
-649 -647 0
650 646 -649 0
-650 -646 0
-650 649 0
651 558 -548 0
-651 -558 0
-651 548 0
652 -558 548 0
-652 558 0
-652 -548 0
653 651 652 0
-653 -651 0
-653 -652 0
654 -653 650 0
-654 653 0
-654 -650 0
655 653 -650 0
-655 -653 0
-655 650 0
656 655 654 0
-656 -655 0
-656 -654 0
657 558 650 0
-657 -558 0
-657 -650 0
658 650 548 0
-658 -650 0
-658 -548 0
659 558 548 0
-659 -558 0
-659 -548 0
660 659 658 0
-660 -659 0
-660 -658 0
661 -660 657 0
-661 660 0
-661 -657 0
662 555 661 0
-662 -555 0
-662 -661 0
663 -555 -661 0
-663 555 0
-663 661 0
664 662 663 0
-664 -662 0
-664 -663 0
665 -555 661 0
-665 555 0
-665 -661 0
-666 17 0
666 -17 0
-667 -84 0
667 84 0
-668 -232 0
668 232 0
-669 -387 0
669 387 0
-670 -469 0
670 469 0
-671 -561 0
671 561 0
-672 -568 0
672 568 0
-673 -579 0
673 579 0
-674 -590 0
674 590 0
-675 -601 0
675 601 0
-676 -612 0
676 612 0
-677 -623 0
677 623 0
-678 -634 0
678 634 0
-679 -645 0
679 645 0
-680 -656 0
680 656 0
-681 -664 0
681 664 0
666 0
667 0
-668 0
-669 0
670 0
-671 0
672 0
-673 0
-674 0
675 0
676 0
677 0
-678 0
-679 0
680 0
681 0
